set VV := 0 1 2 3 4 5 6 ;
set VS := 0 1 2 3 4 5 6 7 8 9 10 11 12 13 14 15 16 17 ;
param cv := 
0 16
1 22
2 20
3 16
4 20
5 13
6 18
;
param cs := 
0 24
1 38
2 20
3 30
4 34
5 33
6 34
7 32
8 31
9 22
10 36
11 21
12 31
13 23
14 31
15 30
16 34
17 20
;
param bv:	 0 1 2 3 4 5 6 := 
		0 0 0 0 0 21 0 25 
		1 0 0 12 0 16 0 0 
		2 0 0 0 0 11 0 0 
		3 0 0 0 0 0 19 21 
		4 0 0 0 0 0 17 0 
		5 0 0 0 0 0 0 0 
		6 0 0 0 0 0 0 0 
;
param bs:	 0 1 2 3 4 5 6 7 8 9 10 11 12 13 14 15 16 17 := 
		0 0 0 0 0 0 33 26 0 0 0 0 0 0 39 0 0 30 0 
		1 0 0 0 0 0 0 0 0 0 0 0 0 0 0 23 0 0 0 
		2 0 0 0 0 0 0 0 0 36 0 20 0 33 0 0 36 21 0 
		3 0 0 0 0 35 0 0 0 0 39 0 0 0 0 0 0 27 0 
		4 0 0 0 35 0 0 0 0 0 0 0 0 0 35 25 0 0 0 
		5 33 0 0 0 0 0 0 0 0 0 0 0 0 0 0 0 0 0 
		6 26 0 0 0 0 0 0 22 0 0 0 0 24 0 0 0 0 0 
		7 0 0 0 0 0 0 22 0 36 0 0 34 0 0 0 0 0 24 
		8 0 0 36 0 0 0 0 36 0 0 21 40 39 0 0 0 0 0 
		9 0 0 0 39 0 0 0 0 0 0 0 0 0 0 0 0 0 0 
		10 0 0 20 0 0 0 0 0 21 0 0 0 0 0 0 0 0 0 
		11 0 0 0 0 0 0 0 34 40 0 0 0 0 0 0 0 0 0 
		12 0 0 33 0 0 0 24 0 39 0 0 0 0 0 0 0 0 37 
		13 39 0 0 0 35 0 0 0 0 0 0 0 0 0 29 0 0 0 
		14 0 23 0 0 25 0 0 0 0 0 0 0 0 29 0 0 0 0 
		15 0 0 36 0 0 0 0 0 0 0 0 0 0 0 0 0 0 0 
		16 30 0 21 27 0 0 0 0 0 0 0 0 0 0 0 0 0 0 
		17 0 0 0 0 0 0 0 24 0 0 0 0 37 0 0 0 0 0 
;
